StringID   Type       x          y          demand     ReadyTime  DueDate    ServiceTime
D0         d               6.755    70.633      0.000      0.000     23.983      0.000
S0         f               6.755    70.633      0.000      0.000     23.983      0.000
S1         f              44.580    31.240      0.000      0.000     23.983      0.000
S2         f              84.140     2.440      0.000      0.000     23.983      0.000
C0         c              17.638    54.471      0.038     14.295     18.503      0.133
C1         c              99.595     1.192      0.005     13.516     15.710      0.083
C2         c              28.789     6.148      0.004     13.423     16.428      0.167
C3         c              39.233    42.100      0.009     13.788     16.722      0.083
C4         c              47.804    68.761      0.012     17.030     19.211      0.167

Q Vehicle fuel tank capacity /124.6400/
C Vehicle load capacity /1.1600/
r fuel consumption rate /0.4707/
g inverse refueling rate /0.0078/
v average Velocity /28.7200/
gv charging speed /128.6600/

--------------------
instance_id /960/
number of clusters /6/
working_startTime (hour) /8.00/
working_endTime (hour) /21.23/
instance_endTime (hour) /23.98/
service_time_type /random/
demand_type /20_80/
instance_type /R/
instance x range /[0.0, 100.0]/
instance y range /[0.0, 100.0]/
cs_time_to_depot (hour)/[1.9015538796170806,3.591371441011037]/
